c colouring generated by benchmark framework
p edge 250 15668
v 1 17
v 2 5
v 3 6
v 4 26
v 5 10
v 6 36
v 7 10
v 8 24
v 9 34
v 10 24
v 11 26
v 12 19
v 13 8
v 14 12
v 15 12
v 16 0
v 17 32
v 18 15
v 19 8
v 20 21
v 21 17
v 22 35
v 23 18
v 24 29
v 25 19
v 26 31
v 27 12
v 28 6
v 29 17
v 30 37
v 31 6
v 32 28
v 33 4
v 34 23
v 35 30
v 36 28
v 37 2
v 38 35
v 39 21
v 40 8
v 41 21
v 42 20
v 43 5
v 44 3
v 45 23
v 46 15
v 47 14
v 48 14
v 49 10
v 50 25
v 51 12
v 52 32
v 53 9
v 54 16
v 55 36
v 56 21
v 57 11
v 58 15
v 59 27
v 60 4
v 61 36
v 62 0
v 63 22
v 64 27
v 65 38
v 66 16
v 67 13
v 68 23
v 69 19
v 70 19
v 71 4
v 72 19
v 73 0
v 74 20
v 75 17
v 76 1
v 77 20
v 78 3
v 79 15
v 80 21
v 81 34
v 82 16
v 83 30
v 84 7
v 85 34
v 86 1
v 87 37
v 88 5
v 89 17
v 90 6
v 91 14
v 92 26
v 93 22
v 94 15
v 95 29
v 96 16
v 97 16
v 98 25
v 99 9
v 100 9
v 101 2
v 102 11
v 103 12
v 104 2
v 105 28
v 106 36
v 107 3
v 108 34
v 109 25
v 110 31
v 111 2
v 112 24
v 113 14
v 114 5
v 115 10
v 116 20
v 117 20
v 118 0
v 119 31
v 120 37
v 121 8
v 122 4
v 123 16
v 124 31
v 125 0
v 126 30
v 127 3
v 128 9
v 129 14
v 130 22
v 131 13
v 132 1
v 133 6
v 134 14
v 135 13
v 136 32
v 137 23
v 138 4
v 139 5
v 140 37
v 141 28
v 142 28
v 143 28
v 144 23
v 145 1
v 146 39
v 147 6
v 148 7
v 149 18
v 150 35
v 151 17
v 152 8
v 153 33
v 154 19
v 155 30
v 156 10
v 157 13
v 158 37
v 159 5
v 160 7
v 161 7
v 162 24
v 163 13
v 164 29
v 165 16
v 166 32
v 167 22
v 168 18
v 169 23
v 170 18
v 171 29
v 172 2
v 173 3
v 174 27
v 175 27
v 176 28
v 177 23
v 178 25
v 179 14
v 180 6
v 181 17
v 182 29
v 183 34
v 184 4
v 185 7
v 186 27
v 187 3
v 188 22
v 189 2
v 190 12
v 191 11
v 192 24
v 193 1
v 194 8
v 195 26
v 196 7
v 197 0
v 198 11
v 199 4
v 200 1
v 201 30
v 202 34
v 203 26
v 204 18
v 205 12
v 206 27
v 207 31
v 208 6
v 209 4
v 210 9
v 211 22
v 212 18
v 213 9
v 214 7
v 215 31
v 216 15
v 217 16
v 218 33
v 219 2
v 220 19
v 221 33
v 222 25
v 223 13
v 224 8
v 225 13
v 226 27
v 227 21
v 228 20
v 229 15
v 230 5
v 231 27
v 232 24
v 233 10
v 234 33
v 235 26
v 236 18
v 237 38
v 238 0
v 239 29
v 240 15
v 241 30
v 242 20
v 243 10
v 244 35
v 245 14
v 246 9
v 247 24
v 248 11
v 249 32
v 250 33
